9963.42,61.04,75.73
10269.76,59.22,73.47
10369.7,58.65,72.76
9926.66,61.27,76.01
10082.49,60.32,74.83
11107.71,54.76,67.93
10442.13,58.25,72.25
9008.17,67.52,83.76
10565.89,57.56,71.41
9852.68,61.73,76.58
10267.16,59.24,73.49
8838.15,68.82,85.37
10248.41,59.35,73.62
10755.43,56.55,70.15
9299.07,65.41,81.14
10330.96,58.87,73.03
10358.08,58.72,72.84
11401.67,53.34,66.17
10291.89,59.1,73.31
9068.26,67.07,83.2
